data/solutions/recovery/wellformed/intermediate/binding/wellformed_intermediate_instance41/22.sol
Elapsed time: 100.37
Upper bound: 263087.0
Planning weighted value: 1023901230.0
C[0]=263087.0
C[1]=263082.0
C[2]=263066.0
C[3]=263053.0
C[4]=263046.0
C[5]=263045.0
C[6]=263039.0
C[7]=263029.0
C[8]=263008.0
C[9]=262980.0
C[10]=262934.0
C[11]=0.0
y[0]=3
y[1]=4
y[2]=4
y[3]=10
y[4]=0
y[5]=2
y[6]=5
y[7]=7
y[8]=1
y[9]=10
y[10]=8
y[11]=2
y[12]=6
y[13]=7
y[14]=3
y[15]=6
y[16]=1
y[17]=8
y[18]=9
y[19]=1
y[20]=0
y[21]=5
y[22]=2
y[23]=6
y[24]=1
y[25]=8
y[26]=5
y[27]=4
y[28]=6
y[29]=3
y[30]=0
y[31]=10
y[32]=10
y[33]=7
y[34]=7
y[35]=2
y[36]=6
y[37]=7
y[38]=7
y[39]=4
y[40]=9
y[41]=2
y[42]=10
y[43]=7
y[44]=5
y[45]=0
y[46]=3
y[47]=9
y[48]=5
y[49]=0
y[50]=8
y[51]=9
y[52]=1
y[53]=7
y[54]=0
y[55]=7
y[56]=8
y[57]=5
y[58]=8
y[59]=8
y[60]=10
y[61]=10
y[62]=4
y[63]=3
y[64]=2
y[65]=7
y[66]=9
y[67]=3
y[68]=2
y[69]=7
y[70]=4
y[71]=0
y[72]=10
y[73]=6
y[74]=5
y[75]=9
y[76]=8
y[77]=7
y[78]=7
y[79]=8
y[80]=8
y[81]=6
y[82]=1
y[83]=10
y[84]=10
y[85]=6
y[86]=4
y[87]=3
y[88]=6
y[89]=5
y[90]=5
y[91]=10
y[92]=5
y[93]=9
y[94]=1
y[95]=5
y[96]=8
y[97]=9
y[98]=2
y[99]=9
y[100]=0
y[101]=3
y[102]=10
y[103]=6
y[104]=3
y[105]=1
y[106]=5
y[107]=1
y[108]=5
y[109]=9
y[110]=8
y[111]=9
y[112]=4
y[113]=8
y[114]=0
y[115]=4
y[116]=4
y[117]=4
y[118]=5
y[119]=6
y[120]=5
y[121]=6
y[122]=7
y[123]=1
y[124]=2
y[125]=3
y[126]=8
y[127]=9
y[128]=6
y[129]=9
y[130]=8
y[131]=6
y[132]=6
y[133]=4
y[134]=1
y[135]=9
y[136]=5
y[137]=7
y[138]=10
y[139]=4
y[140]=9
y[141]=8
y[142]=8
y[143]=2
y[144]=9
y[145]=8
y[146]=5
y[147]=5
y[148]=7
y[149]=5
y[150]=2
y[151]=6
y[152]=4
y[153]=7
y[154]=4
y[155]=2
y[156]=4
y[157]=4
y[158]=9
y[159]=8
y[160]=5
y[161]=0
y[162]=2
y[163]=2
y[164]=10
y[165]=3
y[166]=4
y[167]=6
y[168]=1
y[169]=5
y[170]=1
y[171]=9
y[172]=2
y[173]=5
y[174]=8
y[175]=0
y[176]=6
y[177]=1
y[178]=2
y[179]=1
y[180]=5
y[181]=0
y[182]=0
y[183]=9
y[184]=4
y[185]=7
y[186]=1
y[187]=5
y[188]=7
y[189]=8
y[190]=2
y[191]=5
y[192]=1
y[193]=0
y[194]=0
y[195]=2
y[196]=2
y[197]=5
y[198]=5
y[199]=0
y[200]=2
y[201]=4
y[202]=4
y[203]=4
y[204]=2
y[205]=2
y[206]=3
y[207]=5
y[208]=8
y[209]=3
y[210]=2
y[211]=0
y[212]=8
y[213]=5
y[214]=6
y[215]=2
y[216]=9
y[217]=1
y[218]=10
y[219]=10
y[220]=10
y[221]=7
y[222]=6
y[223]=3
y[224]=1
y[225]=7
y[226]=3
y[227]=5
y[228]=3
y[229]=5
y[230]=10
y[231]=4
y[232]=0
y[233]=5
y[234]=0
y[235]=1
y[236]=4
y[237]=3
y[238]=2
y[239]=0
y[240]=2
y[241]=9
y[242]=3
y[243]=1
y[244]=1
y[245]=2
y[246]=8
y[247]=8
y[248]=6
y[249]=8
y[250]=3
y[251]=10
y[252]=10
y[253]=7
y[254]=3
y[255]=2
y[256]=10
y[257]=9
y[258]=2
y[259]=10
y[260]=6
y[261]=9
y[262]=2
y[263]=1
y[264]=6
y[265]=8
y[266]=9
y[267]=3
y[268]=0
y[269]=1
y[270]=1
y[271]=8
y[272]=2
y[273]=6
y[274]=6
y[275]=2
y[276]=6
y[277]=3
y[278]=3
y[279]=0
y[280]=8
y[281]=3
y[282]=6
y[283]=4
y[284]=1
y[285]=3
y[286]=9
y[287]=5
y[288]=3
y[289]=10
y[290]=3
y[291]=2
y[292]=4
y[293]=1
y[294]=3
y[295]=0
y[296]=6
y[297]=7
y[298]=8
y[299]=3
y[300]=3
y[301]=10
y[302]=4
y[303]=5
y[304]=0
y[305]=3
y[306]=7
y[307]=6
y[308]=3
y[309]=4
y[310]=4
y[311]=8
