data/solutions/recovery/wellformed/intermediate/binding/wellformed_intermediate_instance41/22.log

Log started (V12.6.3.0) Fri Apr 20 18:30:46 2018

New value for default parallel thread count: 1

Problem '/tmp/tmpVFSvao.pyomo.lp' read.
Read time = 0.14 sec. (12.60 ticks)

Problem name         : /tmp/tmpVFSvao.pyomo.lp
Objective sense      : Minimize
Variables            :    3758  [Nneg: 1,  Binary: 3744,  General Integer: 13]
Objective nonzeros   :       1
Linear constraints   :     650  [Less: 324,  Equal: 326]
  Nonzeros           :  934237
  RHS nonzeros       :     313

Variables            : Min LB: 0.000000         Max UB: 1.000000       
Objective nonzeros   : Min   : 1.000000         Max   : 1.000000       
Linear constraints   :
  Nonzeros           : Min   : 1.000000         Max   : 19298.00       
  RHS nonzeros       : Min   : 1.000000         Max   : 1.000000       
Tried aggregator 2 times.
MIP Presolve eliminated 588 rows and 3306 columns.
Aggregator did 11 substitutions.
Reduced MIP has 51 rows, 441 columns, and 891 nonzeros.
Reduced MIP has 440 binaries, 1 generals, 0 SOSs, and 0 indicators.
Presolve time = 0.04 sec. (57.70 ticks)
Found incumbent of value 608267.000000 after 0.08 sec. (79.44 ticks)
Probing time = 0.00 sec. (0.51 ticks)
Tried aggregator 1 time.
Reduced MIP has 51 rows, 441 columns, and 891 nonzeros.
Reduced MIP has 440 binaries, 1 generals, 0 SOSs, and 0 indicators.
Presolve time = 0.00 sec. (0.71 ticks)
Probing time = 0.00 sec. (0.51 ticks)
Clique table members: 40.
MIP emphasis: balance optimality and feasibility.
MIP search method: dynamic search.
Parallel mode: none, using 1 thread.
Root relaxation solution time = 0.00 sec. (0.86 ticks)

        Nodes                                         Cuts/
   Node  Left     Objective  IInf  Best Integer    Best Bound    ItCnt     Gap

*     0+    0                       608267.0000   246681.0000            59.45%
      0     0   263033.5455    20   608267.0000   263033.5455       73   56.76%
*     0+    0                       267953.0000   263033.5455             1.84%
      0     0   263034.0000    23   267953.0000      Fract: 5       92    1.84%
      0     0   263034.0000    25   267953.0000      Cuts: 20      144    1.84%
*     0+    0                       267214.0000   263034.0000             1.56%
*     0+    0                       266555.0000   263034.0000             1.32%
      0     2   263034.0000    18   266555.0000   263034.0000      144    1.32%
Elapsed time = 0.10 sec. (101.96 ticks, tree = 0.01 MB, solutions = 4)
*    10+   10                       266332.0000   263034.0000             1.24%
*    20+   20                       266071.0000   263034.0000             1.14%
*    70+   70                       266030.0000   263034.0000             1.13%
*    80+   78                       265871.0000   263034.0000             1.07%
*    90+   84                       265265.0000   263034.0000             0.84%
*   110+  102                       265223.0000   263034.0000             0.83%
*   130+  105                       264424.0000   263034.0000             0.53%
*   140+  112                       264406.0000   263034.0000             0.52%
*   170+  142                       264345.0000   263034.0000             0.50%
*   190+  162                       264340.0000   263034.0000             0.49%
*   230+  200                       264219.0000   263034.0000             0.45%
*   250+  220                       264181.0000   263034.0000             0.43%
*   260+  230                       264113.0000   263034.0000             0.41%
*   270+  237                       264048.0000   263034.0000             0.38%
*   360+  302                       263822.0000   263034.0000             0.30%
*   460+  340                       263755.0000   263034.0000             0.27%
*   460+  340                       263748.0000   263034.0000             0.27%
*   460+  327                       263635.0000   263034.0000             0.23%
*   460+  327                       263590.0000   263034.0000             0.21%
*  1031+  805                       263451.0000   263034.0000             0.16%
*  1032+  775                       263417.0000   263034.0000             0.15%
*  1032+  773                       263384.0000   263034.0000             0.13%
   1032   775   263034.0000    16   263384.0000   263034.0000     3025    0.13%
*  1033+  727                       263321.0000   263034.0000             0.11%
*  1033+  727                       263312.0000   263034.0000             0.11%
   1033   729   263034.0000    17   263312.0000   263034.0000     3047    0.11%
   1034   730   263034.0000    17   263312.0000   263034.0000     3353    0.11%
   1035   731   263034.0000    17   263312.0000   263034.0000     3354    0.11%
   1036   732   263034.0000    18   263312.0000   263034.0000     3360    0.11%
   1037   733   263034.0000    19   263312.0000   263034.0000     3364    0.11%
   1038   734   263034.0000    18   263312.0000   263034.0000     3366    0.11%
   1039   735   263034.0000    20   263312.0000   263034.0000     3372    0.11%
   1040   736   263034.0000    19   263312.0000   263034.0000     3385    0.11%
   1934   783   263193.0000    14   263312.0000   263034.0000     6311    0.11%
Elapsed time = 1.13 sec. (1139.16 ticks, tree = 0.32 MB, solutions = 28)
  10187  7769   263045.9000    17   263312.0000   263034.0000    25763    0.11%
  10188  7770   263045.9000    17   263312.0000   263034.0000    25764    0.11%
  10189  7771   263045.9000    17   263312.0000   263034.0000    25765    0.11%
  10190  7772   263045.9000    18   263312.0000   263034.0000    25768    0.11%
  10191  7773   263045.9000    19   263312.0000   263034.0000    25771    0.11%
  10192  7774   263045.9000    18   263312.0000   263034.0000    25774    0.11%
  10193  7775   263045.9000    18   263312.0000   263034.0000    25775    0.11%
  10194  7776   263045.9000    18   263312.0000   263034.0000    25776    0.11%
  10195  7776   263045.9000    18   263312.0000   263034.0000    25779    0.11%
  10196  7777   263062.3333    16   263312.0000   263034.0000    25781    0.11%
Elapsed time = 2.00 sec. (2093.45 ticks, tree = 3.14 MB, solutions = 28)
  24684 20707   263287.0000    11   263312.0000   263034.0000    54803    0.11%
  24685 20708   263287.0000    13   263312.0000   263034.0000    54806    0.11%
  24686 20709   263287.0000    14   263312.0000   263034.0000    54810    0.11%
  24687 20710   263287.0000    12   263312.0000   263034.0000    54811    0.11%
  24688 20711   263287.0000    12   263312.0000   263034.0000    54813    0.11%
  24689 20712   263287.0000    14   263312.0000   263034.0000    54816    0.11%
  24690 20713   263287.0000    14   263312.0000   263034.0000    54819    0.11%
  24691 20714   263287.0000    12   263312.0000   263034.0000    54820    0.11%
  24692 20715   263287.0000    14   263312.0000   263034.0000    54824    0.11%
  24693 20716   263287.0000    14   263312.0000   263034.0000    54826    0.11%
Elapsed time = 2.88 sec. (3047.75 ticks, tree = 8.63 MB, solutions = 28)
  39439 33866   263253.4286    13   263312.0000   263034.0000    84323    0.11%
  39440 33867   263253.4286    13   263312.0000   263034.0000    84325    0.11%
  39441 33868   263253.4286    13   263312.0000   263034.0000    84326    0.11%
  39442 33869   263253.4286    12   263312.0000   263034.0000    84329    0.11%
  39443 33870   263253.4286    12   263312.0000   263034.0000    84331    0.11%
  39444 33871   263253.4286    12   263312.0000   263034.0000    84333    0.11%
  39445 33872   263253.4286    12   263312.0000   263034.0000    84334    0.11%
  39446 33873   263253.4286    12   263312.0000   263034.0000    84335    0.11%
  39447 33874   263253.4286    12   263312.0000   263034.0000    84336    0.11%
  39448 33875   263253.4286    12   263312.0000   263034.0000    84338    0.11%
Elapsed time = 3.76 sec. (4001.96 ticks, tree = 14.51 MB, solutions = 28)
  53478 45813   263039.8889    15   263312.0000   263034.0000   112901    0.11%
  53479 45814   263039.8889    15   263312.0000   263034.0000   112902    0.11%
  53480 45815   263039.8889    15   263312.0000   263034.0000   112903    0.11%
  53481 45816   263039.8889    15   263312.0000   263034.0000   112904    0.11%
  53482 45817   263039.8889    15   263312.0000   263034.0000   112905    0.11%
  53483 45818   263039.8889    15   263312.0000   263034.0000   112906    0.11%
  53484 45819   263039.8889    15   263312.0000   263034.0000   112907    0.11%
  53485 45820   263039.8889    15   263312.0000   263034.0000   112911    0.11%
  53486 45821   263039.8889    15   263312.0000   263034.0000   112913    0.11%
  53487 45822   263039.8889    15   263312.0000   263034.0000   112914    0.11%
Elapsed time = 4.67 sec. (4956.82 ticks, tree = 18.98 MB, solutions = 28)
* 59329 45616      integral     0   263289.0000   263034.0000   125179    0.10%
  65831 50298   263176.0000    12   263289.0000   263034.0000   138461    0.10%
  65832 50299   263176.0000    12   263289.0000   263034.0000   138462    0.10%
  65833 50300   263176.0000    11   263289.0000   263034.0000   138463    0.10%
  65834 50301   263176.0000    12   263289.0000   263034.0000   138465    0.10%
  65835 50302   263176.0000    14   263289.0000   263034.0000   138469    0.10%
  65836 50303   263176.0000    12   263289.0000   263034.0000   138471    0.10%
  65837 50304   263267.4000     9   263289.0000   263034.0000   138474    0.10%
  65838 50305   263267.4000     8   263289.0000   263034.0000   138475    0.10%
  65839 50305   263267.4000     9   263289.0000   263034.0000   138476    0.10%
  65840 50305   263267.4000     9   263289.0000   263034.0000   138477    0.10%
Elapsed time = 5.59 sec. (5911.06 ticks, tree = 20.74 MB, solutions = 29)
  75917 57258   263210.0000     8   263289.0000   263034.0000   158259    0.10%
  75918 57259   263237.0000     6   263289.0000   263034.0000   158261    0.10%
  75919 57260   263237.0000     7   263289.0000   263034.0000   158264    0.10%
  75920 57261   263237.0000     7   263289.0000   263034.0000   158268    0.10%
  75921 57262   263237.0000     7   263289.0000   263034.0000   158269    0.10%
  75922 57263   263237.0000     8   263289.0000   263034.0000   158270    0.10%
  75923 57264   263237.0000     8   263289.0000   263034.0000   158271    0.10%
  75924 57265   263237.0000     8   263289.0000   263034.0000   158274    0.10%
  75925 57266   263237.0000    10   263289.0000   263034.0000   158277    0.10%
  75926 57267   263237.0000     8   263289.0000   263034.0000   158279    0.10%
Elapsed time = 6.51 sec. (6865.92 ticks, tree = 23.54 MB, solutions = 29)
* 86142 60571      integral     0   263276.0000   263034.0000   180026    0.09%
* 86242+57583                       263264.0000   263034.0000             0.09%
* 86242+55476                       263256.0000   263034.0000             0.08%
  86932 56019   263241.0000     7   263256.0000   263034.0000   181732    0.08%
  86933 56020   263241.0000     7   263256.0000   263034.0000   181733    0.08%
  86934 56021   263241.0000     8   263256.0000   263034.0000   181734    0.08%
  86935 56022   263241.0000     6   263256.0000   263034.0000   181737    0.08%
  86936 56023   263241.0000     8   263256.0000   263034.0000   181741    0.08%
  86937 56024   263241.0000     8   263256.0000   263034.0000   181742    0.08%
  86938 56025   263241.0000     8   263256.0000   263034.0000   181744    0.08%
  86939 56024        cutoff         263256.0000   263034.0000   181746    0.08%
  86940 56023        cutoff         263256.0000   263034.0000   181749    0.08%
  86941 56024   263235.2222    15   263256.0000   263034.0000   181755    0.08%
Elapsed time = 7.43 sec. (7820.50 ticks, tree = 23.07 MB, solutions = 32)
  98254 64766   263233.0000     8   263256.0000   263034.0000   205965    0.08%
  98255 64767   263233.0000     8   263256.0000   263034.0000   205969    0.08%
  98256 64768   263233.0000     8   263256.0000   263034.0000   205971    0.08%
  98257 64769   263233.0000     8   263256.0000   263034.0000   205972    0.08%
  98258 64770   263233.0000     7   263256.0000   263034.0000   205975    0.08%
  98259 64771   263233.0000    10   263256.0000   263034.0000   205978    0.08%
  98260 64772   263233.0000    10   263256.0000   263034.0000   205980    0.08%
  98261 64773   263233.0000     9   263256.0000   263034.0000   205981    0.08%
  98262 64774   263233.0000    10   263256.0000   263034.0000   205982    0.08%
  98263 64775   263233.0000     8   263256.0000   263034.0000   205985    0.08%
Elapsed time = 8.33 sec. (8774.78 ticks, tree = 26.46 MB, solutions = 32)
 111845 76063   263088.5556    14   263256.0000   263034.0000   233039    0.08%
 111846 76064   263088.5556    14   263256.0000   263034.0000   233040    0.08%
 111847 76065   263088.5556    14   263256.0000   263034.0000   233041    0.08%
 111848 76066   263088.5556    14   263256.0000   263034.0000   233042    0.08%
 111849 76067   263088.5556    14   263256.0000   263034.0000   233043    0.08%
 111850 76068   263088.5556    15   263256.0000   263034.0000   233045    0.08%
 111851 76069   263088.5556    14   263256.0000   263034.0000   233046    0.08%
 111852 76070   263088.5556    15   263256.0000   263034.0000   233048    0.08%
 111853 76071   263088.5556    15   263256.0000   263034.0000   233049    0.08%
 144636 98350   263173.8889    16   263256.0000   263034.0000   304216    0.08%
Elapsed time = 11.91 sec. (12589.50 ticks, tree = 41.71 MB, solutions = 32)
*154191 66124      integral     0   263237.0000   263034.0000   325523    0.08%
 194883 100827   263106.2222    15   263237.0000   263034.0000   407239    0.08%
 194884 100828   263106.2222    15   263237.0000   263034.0000   407240    0.08%
 194885 100829   263106.2222    17   263237.0000   263034.0000   407246    0.08%
 194886 100830   263106.2222    17   263237.0000   263034.0000   407248    0.08%
 194887 100831   263106.2222    17   263237.0000   263034.0000   407250    0.08%
 194888 100832   263106.2222    17   263237.0000   263034.0000   407251    0.08%
 194889 100833   263106.2222    17   263237.0000   263034.0000   407252    0.08%
 194890 100834   263106.2222    17   263237.0000   263034.0000   407253    0.08%
 194891 100835   263106.2222    17   263237.0000   263034.0000   407254    0.08%
 194892 100836   263106.2222    17   263237.0000   263034.0000   407255    0.08%
Elapsed time = 15.39 sec. (16404.81 ticks, tree = 42.07 MB, solutions = 33)
*201951 67791      integral     0   263162.0000   263034.0000   421154    0.05%
 235412 88412   263113.1111    16   263162.0000   263034.0000   489706    0.05%
 235413 88413   263113.1111    16   263162.0000   263034.0000   489707    0.05%
 235414 88414   263150.0000    11   263162.0000   263034.0000   489710    0.05%
 235415 88413        cutoff         263162.0000   263034.0000   489712    0.05%
 235416 88414   263150.0000    10   263162.0000   263034.0000   489715    0.05%
 235417 88415   263150.0000    10   263162.0000   263034.0000   489717    0.05%
 235418 88416   263150.0000    10   263162.0000   263034.0000   489718    0.05%
 235419 88417   263150.0000    10   263162.0000   263034.0000   489719    0.05%
 235420 88418   263150.0000    10   263162.0000   263034.0000   489720    0.05%
 235421 88419   263150.0000    10   263162.0000   263034.0000   489721    0.05%
Elapsed time = 18.99 sec. (20220.31 ticks, tree = 37.21 MB, solutions = 34)
 278122 121037        cutoff         263162.0000   263034.0000   575124    0.05%
 278123 121036        cutoff         263162.0000   263034.0000   575127    0.05%
 278124 121037   263045.9000    18   263162.0000   263034.0000   575135    0.05%
 278125 121038   263045.9000    18   263162.0000   263034.0000   575138    0.05%
 278126 121039   263045.9000    18   263162.0000   263034.0000   575140    0.05%
 278127 121040   263045.9000    18   263162.0000   263034.0000   575141    0.05%
 278128 121041   263045.9000    18   263162.0000   263034.0000   575144    0.05%
 278129 121042   263045.9000    18   263162.0000   263034.0000   575147    0.05%
 278130 121042   263045.9000    19   263162.0000   263034.0000   575150    0.05%
 278131 121043   263045.9000    19   263162.0000   263034.0000   575151    0.05%
Elapsed time = 22.56 sec. (24038.33 ticks, tree = 49.84 MB, solutions = 34)
 320934 152504        cutoff         263162.0000   263034.0000   663732    0.05%
 320935 152503        cutoff         263162.0000   263034.0000   663734    0.05%
 320936 152504   263034.0000    18   263162.0000   263034.0000   663736    0.05%
 320937 152505   263034.0000    16   263162.0000   263034.0000   663738    0.05%
 320938 152506   263034.0000    16   263162.0000   263034.0000   663739    0.05%
 320939 152507   263034.0000    16   263162.0000   263034.0000   663741    0.05%
 320940 152508   263034.0000    16   263162.0000   263034.0000   663745    0.05%
 320941 152509   263034.0000    16   263162.0000   263034.0000   663748    0.05%
 320942 152510   263034.0000    16   263162.0000   263034.0000   663749    0.05%
 320943 152511   263034.0000    16   263162.0000   263034.0000   663750    0.05%
Elapsed time = 26.35 sec. (27853.60 ticks, tree = 63.66 MB, solutions = 34)
 370517 187614   263106.7000    18   263162.0000   263034.0000   775679    0.05%
 370518 187615   263034.0000    17   263162.0000   263034.0000   775684    0.05%
 370519 187616   263153.7000    17   263162.0000   263034.0000   775688    0.05%
 370520 187617   263034.0000    17   263162.0000   263034.0000   775691    0.05%
 370521 187618   263153.7000    18   263162.0000   263034.0000   775692    0.05%
 370522 187619   263153.7000    18   263162.0000   263034.0000   775693    0.05%
 370523 187618        cutoff         263162.0000   263034.0000   775694    0.05%
 370524 187617        cutoff         263162.0000   263034.0000   775695    0.05%
 370525 187618   263034.0000    16   263162.0000   263034.0000   775699    0.05%
 370526 187619   263034.0000    17   263162.0000   263034.0000   775701    0.05%
Elapsed time = 30.20 sec. (31669.49 ticks, tree = 78.67 MB, solutions = 34)
 417638 219724   263142.8889    15   263162.0000   263034.0000   885782    0.05%
 417639 219725   263142.8889    15   263162.0000   263034.0000   885784    0.05%
 417640 219726   263142.8889    15   263162.0000   263034.0000   885786    0.05%
 417641 219727   263142.8889    14   263162.0000   263034.0000   885787    0.05%
 417642 219726        cutoff         263162.0000   263034.0000   885789    0.05%
 417643 219726   263142.8889    14   263162.0000   263034.0000   885792    0.05%
 417644 219726   263149.5000    13   263162.0000   263034.0000   885794    0.05%
 417645 219725        cutoff         263162.0000   263034.0000   885797    0.05%
 417646 219726   263142.8889    15   263162.0000   263034.0000   885806    0.05%
 417647 219727   263142.8889    16   263162.0000   263034.0000   885807    0.05%
Elapsed time = 33.74 sec. (35484.89 ticks, tree = 92.67 MB, solutions = 34)
 455834 244849   263160.1250    12   263162.0000   263034.0000   973527    0.05%
 455835 244849   263160.1250    13   263162.0000   263034.0000   973528    0.05%
 455836 244848        cutoff         263162.0000   263034.0000   973530    0.05%
 455837 244849   263034.0000    16   263162.0000   263034.0000   973532    0.05%
 455838 244850   263054.7000    17   263162.0000   263034.0000   973534    0.05%
 455839 244849        cutoff         263162.0000   263034.0000   973535    0.05%
 455840 244849   263147.0000    13   263162.0000   263034.0000   973539    0.05%
 455841 244848        cutoff         263162.0000   263034.0000   973542    0.05%
 455842 244849   263115.0000    14   263162.0000   263034.0000   973544    0.05%
 455843 244850   263115.0000    13   263162.0000   263034.0000   973546    0.05%
Elapsed time = 37.34 sec. (39302.09 ticks, tree = 104.18 MB, solutions = 34)
*456796 232910      integral     0   263154.0000   263034.0000   975776    0.05%
 498024 260490   263034.0000    16   263154.0000   263034.0000  1069485    0.05%
 498025 260491   263034.0000    17   263154.0000   263034.0000  1069489    0.05%
 498026 260490        cutoff         263154.0000   263034.0000  1069493    0.05%
 498027 260491   263054.8000    17   263154.0000   263034.0000  1069497    0.05%
 498028 260492   263054.8000    17   263154.0000   263034.0000  1069499    0.05%
 498029 260493   263054.8000    18   263154.0000   263034.0000  1069500    0.05%
 498030 260494   263054.8000    18   263154.0000   263034.0000  1069502    0.05%
 498031 260495   263054.8000    17   263154.0000   263034.0000  1069504    0.05%
 498032 260496   263061.0000    15   263154.0000   263034.0000  1069506    0.05%
 498033 260497   263114.6250    13   263154.0000   263034.0000  1069509    0.05%
Elapsed time = 40.92 sec. (43118.08 ticks, tree = 110.30 MB, solutions = 35)
*519234+188856                       263115.0000   263034.0000             0.03%
 532276 196459   263053.7778    16   263115.0000   263034.0000  1150499    0.03%
 532277 196460   263053.7778    16   263115.0000   263034.0000  1150500    0.03%
 532278 196461   263053.7778    16   263115.0000   263034.0000  1150501    0.03%
 532279 196462   263053.7778    16   263115.0000   263034.0000  1150503    0.03%
 532280 196463   263053.7778    16   263115.0000   263034.0000  1150504    0.03%
 532281 196464   263053.7778    15   263115.0000   263034.0000  1150505    0.03%
 532282 196465   263053.7778    15   263115.0000   263034.0000  1150506    0.03%
 532283 196466   263074.2500    14   263115.0000   263034.0000  1150507    0.03%
 532284 196467   263074.2500    14   263115.0000   263034.0000  1150508    0.03%
 532285 196468   263074.2500    13   263115.0000   263034.0000  1150509    0.03%
Elapsed time = 44.67 sec. (46933.56 ticks, tree = 86.77 MB, solutions = 36)
 568895 215232   263034.0000    18   263115.0000   263034.0000  1245522    0.03%
 568896 215233   263034.0000    18   263115.0000   263034.0000  1245524    0.03%
 568897 215234   263034.0000    18   263115.0000   263034.0000  1245525    0.03%
 568898 215235   263034.0000    18   263115.0000   263034.0000  1245526    0.03%
 568899 215236   263034.0000    18   263115.0000   263034.0000  1245527    0.03%
 568900 215237   263034.0000    18   263115.0000   263034.0000  1245528    0.03%
 568901 215236        cutoff         263115.0000   263034.0000  1245533    0.03%
 568902 215237   263034.0000    19   263115.0000   263034.0000  1245536    0.03%
 568903 215238   263034.0000    18   263115.0000   263034.0000  1245537    0.03%
 568904 215237        cutoff         263115.0000   263034.0000  1245541    0.03%
Elapsed time = 48.48 sec. (50749.27 ticks, tree = 94.19 MB, solutions = 36)
 603516 235183   263090.7000    18   263115.0000   263034.0000  1323858    0.03%
 603517 235184   263090.7000    17   263115.0000   263034.0000  1323859    0.03%
 603518 235183        cutoff         263115.0000   263034.0000  1323860    0.03%
 603519 235182        cutoff         263115.0000   263034.0000  1323861    0.03%
 603520 235183   263037.2000    18   263115.0000   263034.0000  1323866    0.03%
 603521 235184   263037.2000    18   263115.0000   263034.0000  1323869    0.03%
 603522 235185   263037.2000    18   263115.0000   263034.0000  1323870    0.03%
 603523 235186   263037.2000    18   263115.0000   263034.0000  1323872    0.03%
 603524 235187   263037.2000    18   263115.0000   263034.0000  1323875    0.03%
 603525 235188   263037.2000    18   263115.0000   263034.0000  1323877    0.03%
Elapsed time = 52.17 sec. (54564.61 ticks, tree = 102.06 MB, solutions = 36)
*634234+207320                       263098.0000   263034.0000             0.02%
*634334+203809                       263097.0000   263034.0000             0.02%
 638582 205842   263034.0000    17   263097.0000   263034.0000  1408389    0.02%
 638583 205843   263034.0000    17   263097.0000   263034.0000  1408391    0.02%
 638584 205844   263034.0000    16   263097.0000   263034.0000  1408394    0.02%
 638585 205845   263034.0000    16   263097.0000   263034.0000  1408397    0.02%
 638586 205846   263034.0000    17   263097.0000   263034.0000  1408399    0.02%
 638587 205847   263048.0000    16   263097.0000   263034.0000  1408404    0.02%
 638588 205846    infeasible         263097.0000   263034.0000  1408404    0.02%
 638589 205845        cutoff         263097.0000   263034.0000  1408409    0.02%
 638590 205844        cutoff         263097.0000   263034.0000  1408417    0.02%
 638591 205845   263034.0000    18   263097.0000   263034.0000  1408420    0.02%
Elapsed time = 55.89 sec. (58380.04 ticks, tree = 90.57 MB, solutions = 38)
 674584 225289   263064.0000    17   263097.0000   263034.0000  1494708    0.02%
 674585 225290   263064.0000    17   263097.0000   263034.0000  1494709    0.02%
 674586 225289        cutoff         263097.0000   263034.0000  1494710    0.02%
 674587 225289   263064.0000    16   263097.0000   263034.0000  1494715    0.02%
 674588 225290   263064.0000    16   263097.0000   263034.0000  1494717    0.02%
 674589 225289        cutoff         263097.0000   263034.0000  1494719    0.02%
 674590 225288        cutoff         263097.0000   263034.0000  1494722    0.02%
 674591 225287        cutoff         263097.0000   263034.0000  1494724    0.02%
 674592 225288   263034.0000    17   263097.0000   263034.0000  1494728    0.02%
 674593 225289   263034.0000    16   263097.0000   263034.0000  1494729    0.02%
Elapsed time = 59.62 sec. (62196.58 ticks, tree = 98.25 MB, solutions = 38)
 716773 244647   263084.8000    18   263097.0000   263034.0000  1594772    0.02%
 716774 244648   263084.8000    18   263097.0000   263034.0000  1594773    0.02%
 716775 244649   263091.0000    15   263097.0000   263034.0000  1594774    0.02%
 716776 244650   263091.0000    15   263097.0000   263034.0000  1594778    0.02%
 716777 244651   263091.0000    15   263097.0000   263034.0000  1594779    0.02%
 716778 244652   263091.0000    15   263097.0000   263034.0000  1594781    0.02%
 716779 244653   263091.0000    15   263097.0000   263034.0000  1594783    0.02%
 716780 244654   263091.0000    15   263097.0000   263034.0000  1594784    0.02%
 716781 244655   263091.0000    15   263097.0000   263034.0000  1594786    0.02%
 716782 244655   263091.0000    15   263097.0000   263034.0000  1594788    0.02%
Elapsed time = 63.29 sec. (66012.02 ticks, tree = 105.92 MB, solutions = 38)
 755160 264031        cutoff         263097.0000   263034.0000  1685519    0.02%
 755161 264032   263034.0000    17   263097.0000   263034.0000  1685521    0.02%
 755162 264033   263034.0000    17   263097.0000   263034.0000  1685526    0.02%
 755163 264034   263034.0000    17   263097.0000   263034.0000  1685531    0.02%
 755164 264035   263034.0000    17   263097.0000   263034.0000  1685540    0.02%
 755165 264036   263034.0000    19   263097.0000   263034.0000  1685543    0.02%
 755166 264035        cutoff         263097.0000   263034.0000  1685549    0.02%
 755167 264036   263034.0000    19   263097.0000   263034.0000  1685550    0.02%
 755168 264037   263034.0000    19   263097.0000   263034.0000  1685551    0.02%
 755169 264038   263034.0000    19   263097.0000   263034.0000  1685552    0.02%
Elapsed time = 66.96 sec. (69828.52 ticks, tree = 113.63 MB, solutions = 38)
 789746 282329        cutoff         263097.0000   263034.0000  1769826    0.02%
 789747 282330   263044.0000    15   263097.0000   263034.0000  1769828    0.02%
 789748 282331   263044.0000    16   263097.0000   263034.0000  1769830    0.02%
 789749 282330        cutoff         263097.0000   263034.0000  1769832    0.02%
 789750 282329        cutoff         263097.0000   263034.0000  1769835    0.02%
 789751 282329   263077.1250    15   263097.0000   263034.0000  1769842    0.02%
 789752 282328        cutoff         263097.0000   263034.0000  1769844    0.02%
 789753 282329   263044.0000    17   263097.0000   263034.0000  1769857    0.02%
 789754 282328    infeasible         263097.0000   263034.0000  1769857    0.02%
 789755 282327        cutoff         263097.0000   263034.0000  1769862    0.02%
Elapsed time = 70.59 sec. (73643.98 ticks, tree = 120.84 MB, solutions = 38)
 826411 301254   263040.9000    18   263097.0000   263034.0000  1859837    0.02%
 826412 301253        cutoff         263097.0000   263034.0000  1859839    0.02%
 826413 301252        cutoff         263097.0000   263034.0000  1859842    0.02%
 826414 301253   263086.4000    16   263097.0000   263034.0000  1859845    0.02%
 826415 301254   263086.4000    17   263097.0000   263034.0000  1859846    0.02%
 826416 301255   263086.4000    17   263097.0000   263034.0000  1859847    0.02%
 826417 301254        cutoff         263097.0000   263034.0000  1859850    0.02%
 826418 301255   263086.4000    17   263097.0000   263034.0000  1859851    0.02%
 826419 301254        cutoff         263097.0000   263034.0000  1859852    0.02%
 826420 301253        cutoff         263097.0000   263034.0000  1859854    0.02%
Elapsed time = 74.22 sec. (77459.61 ticks, tree = 128.30 MB, solutions = 38)
 861323 319910   263034.0000    18   263097.0000   263034.0000  1947157    0.02%
 861324 319911   263034.0000    18   263097.0000   263034.0000  1947159    0.02%
 861325 319912   263034.0000    17   263097.0000   263034.0000  1947167    0.02%
 861326 319913   263074.3000    16   263097.0000   263034.0000  1947169    0.02%
 861327 319912        cutoff         263097.0000   263034.0000  1947170    0.02%
 861328 319911    infeasible         263097.0000   263034.0000  1947170    0.02%
 861329 319912   263045.5714    17   263097.0000   263034.0000  1947179    0.02%
 861330 319911    infeasible         263097.0000   263034.0000  1947179    0.02%
 861331 319912   263091.0000    14   263097.0000   263034.0000  1947181    0.02%
 861332 319913   263091.0000    13   263097.0000   263034.0000  1947182    0.02%
Elapsed time = 77.87 sec. (81276.92 ticks, tree = 135.62 MB, solutions = 38)
 898190 341637   263034.0000    16   263097.0000   263034.0000  2037114    0.02%
 898191 341638   263034.0000    16   263097.0000   263034.0000  2037115    0.02%
 898192 341639   263034.0000    16   263097.0000   263034.0000  2037117    0.02%
 898193 341640   263034.0000    17   263097.0000   263034.0000  2037119    0.02%
 898194 341641   263034.0000    17   263097.0000   263034.0000  2037120    0.02%
 898195 341640        cutoff         263097.0000   263034.0000  2037127    0.02%
 898196 341641   263044.2222    17   263097.0000   263034.0000  2037130    0.02%
 898197 341642   263044.2222    16   263097.0000   263034.0000  2037131    0.02%
 898198 341641        cutoff         263097.0000   263034.0000  2037134    0.02%
 898199 341640        cutoff         263097.0000   263034.0000  2037136    0.02%
Elapsed time = 81.49 sec. (85092.67 ticks, tree = 146.35 MB, solutions = 38)
 931226 354498   263084.5714    13   263097.0000   263034.0000  2123958    0.02%
 931227 354499   263084.5714    13   263097.0000   263034.0000  2123959    0.02%
 931228 354500   263084.5714    12   263097.0000   263034.0000  2123962    0.02%
 931229 354499        cutoff         263097.0000   263034.0000  2123964    0.02%
 931230 354500   263084.5714    13   263097.0000   263034.0000  2123966    0.02%
 931231 354501   263084.5714    13   263097.0000   263034.0000  2123968    0.02%
 931232 354500    infeasible         263097.0000   263034.0000  2123968    0.02%
 931233 354500   263084.5714    12   263097.0000   263034.0000  2123971    0.02%
 931234 354499        cutoff         263097.0000   263034.0000  2123973    0.02%
 931235 354500   263034.0000    17   263097.0000   263034.0000  2123981    0.02%
Elapsed time = 85.06 sec. (88908.40 ticks, tree = 151.49 MB, solutions = 38)
 968903 372390   263080.3750    13   263097.0000   263034.0000  2211438    0.02%
 968904 372391   263080.3750    14   263097.0000   263034.0000  2211439    0.02%
 968905 372390        cutoff         263097.0000   263034.0000  2211440    0.02%
 968906 372389        cutoff         263097.0000   263034.0000  2211443    0.02%
 968907 372388    infeasible         263097.0000   263034.0000  2211443    0.02%
 968908 372389   263034.0000    17   263097.0000   263034.0000  2211454    0.02%
 968909 372390   263034.0000    17   263097.0000   263034.0000  2211457    0.02%
 968910 372391   263034.0000    16   263097.0000   263034.0000  2211458    0.02%
 968911 372390        cutoff         263097.0000   263034.0000  2211464    0.02%
 968912 372391   263034.0000    17   263097.0000   263034.0000  2211468    0.02%
Elapsed time = 88.63 sec. (92724.27 ticks, tree = 158.43 MB, solutions = 38)
*982834+321651                       263087.0000   263034.0000             0.02%
 989009 325505   263034.0000    17   263087.0000   263034.0000  2262431    0.02%
 989010 325506   263034.0000    17   263087.0000   263034.0000  2262435    0.02%
 989011 325507   263034.0000    17   263087.0000   263034.0000  2262439    0.02%
 989012 325506        cutoff         263087.0000   263034.0000  2262446    0.02%
 989013 325507   263034.0000    17   263087.0000   263034.0000  2262447    0.02%
 989014 325508   263034.0000    17   263087.0000   263034.0000  2262448    0.02%
 989015 325509   263034.0000    17   263087.0000   263034.0000  2262449    0.02%
 989016 325510   263034.0000    17   263087.0000   263034.0000  2262452    0.02%
 989017 325511   263034.0000    17   263087.0000   263034.0000  2262453    0.02%
 989018 325512   263034.0000    17   263087.0000   263034.0000  2262456    0.02%
Elapsed time = 92.21 sec. (96540.17 ticks, tree = 139.86 MB, solutions = 39)
 1028821 344881        cutoff         263087.0000   263034.0000  2351660    0.02%
 1028822 344880        cutoff         263087.0000   263034.0000  2351663    0.02%
 1028823 344881   263034.0000    16   263087.0000   263034.0000  2351666    0.02%
 1028824 344882   263034.0000    18   263087.0000   263034.0000  2351668    0.02%
 1028825 344881        cutoff         263087.0000   263034.0000  2351670    0.02%
 1028826 344880        cutoff         263087.0000   263034.0000  2351671    0.02%
 1028827 344879    infeasible         263087.0000   263034.0000  2351671    0.02%
 1028828 344878        cutoff         263087.0000   263034.0000  2351677    0.02%
 1028829 344879   263034.0000    18   263087.0000   263034.0000  2351681    0.02%
 1028830 344880   263034.0000    18   263087.0000   263034.0000  2351683    0.02%
Elapsed time = 95.89 sec. (100357.96 ticks, tree = 147.35 MB, solutions = 39)
 1064087 361235   263075.1000    18   263087.0000   263034.0000  2434139    0.02%
 1064088 361236   263075.1000    18   263087.0000   263034.0000  2434141    0.02%
 1064089 361237   263075.1000    18   263087.0000   263034.0000  2434143    0.02%
 1064090 361236        cutoff         263087.0000   263034.0000  2434147    0.02%
 1064091 361236   263075.1000    18   263087.0000   263034.0000  2434149    0.02%
 1064092 361235        cutoff         263087.0000   263034.0000  2434151    0.02%
 1064093 361234        cutoff         263087.0000   263034.0000  2434152    0.02%
 1064094 361235   263057.3000    19   263087.0000   263034.0000  2434159    0.02%
 1064095 361236   263057.3000    18   263087.0000   263034.0000  2434160    0.02%
 1064096 361237   263057.3000    18   263087.0000   263034.0000  2434161    0.02%
Elapsed time = 99.57 sec. (104173.62 ticks, tree = 153.80 MB, solutions = 39)

Cover cuts applied:  1

Root node processing (before b&c):
  Real time             =    0.10 sec. (102.96 ticks)
Sequential b&c:
  Real time             =   99.90 sec. (104751.12 ticks)
                          ------------
Total (root+branch&cut) =  100.00 sec. (104854.08 ticks)

Solution pool: 39 solutions saved.

MIP - Time limit exceeded, integer feasible:  Objective =  2.6308700000e+05
Current MIP best bound =  2.6303400000e+05 (gap = 53, 0.02%)
Solution time =  100.00 sec.  Iterations = 2445198  Nodes = 1068832 (363364)
Deterministic time = 104854.09 ticks  (1048.53 ticks/sec)


Incumbent solution written to file '/tmp/tmpjuH2oh.cplex.sol'.
